Version identifier: 12.10.0.0 | 2019-11-26 | 843d4de
CPXPARAM_WorkMem                                 28672
Tried aggregator 2 times.
Aggregator did 40 substitutions.
Reduced MIP has 143 rows, 180 columns, and 669 nonzeros.
Reduced MIP has 180 binaries, 0 generals, 0 SOSs, and 0 indicators.
Presolve time = 0,00 sec. (0,62 ticks)
Found incumbent of value 120,000000 after 0,00 sec. (1,21 ticks)
Probing time = 0,00 sec. (0,20 ticks)
Tried aggregator 1 time.
Detecting symmetries...
MIP Presolve eliminated 15 rows and 0 columns.
MIP Presolve added 30 rows and 0 columns.
Reduced MIP has 158 rows, 180 columns, and 684 nonzeros.
Reduced MIP has 180 binaries, 0 generals, 0 SOSs, and 0 indicators.
Presolve time = 0,00 sec. (0,69 ticks)
Probing time = 0,00 sec. (0,20 ticks)
Clique table members: 449.
MIP emphasis: balance optimality and feasibility.
MIP search method: dynamic search.
Parallel mode: deterministic, using up to 16 threads.
Root relaxation solution time = 0,00 sec. (0,32 ticks)

        Nodes                                         Cuts/
   Node  Left     Objective  IInf  Best Integer    Best Bound    ItCnt     Gap

*     0+    0                          120,0000        0,0000           100,00%
*     0+    0                           84,0000        0,0000           100,00%
*     0+    0                           78,0000        0,0000           100,00%
      0     0       40,0000    84       78,0000       40,0000       39   48,72%
      0     0       40,0000    84       78,0000     Cuts: 134       94   48,72%
      0     0       40,0000    84       78,0000     Cuts: 140      154   48,72%
*     0+    0                           73,0000       40,0000            45,21%
Detecting symmetries...
      0     2       40,0000   111       73,0000       42,5000      154   41,78%
Elapsed time = 0,05 sec. (17,80 ticks, tree = 0,02 MB, solutions = 4)
*  4209  2380      integral     0       72,0000       51,4523    69520   28,54%
*  4791  2395      integral     0       69,0000       55,6361    80246   19,37%
   4842  2363       60,0668   115       69,0000       55,6361    77798   19,37%

Performing restart 1

Repeating presolve.
Tried aggregator 1 time.
Reduced MIP has 158 rows, 180 columns, and 684 nonzeros.
Reduced MIP has 180 binaries, 0 generals, 0 SOSs, and 0 indicators.
Presolve time = 0,00 sec. (0,38 ticks)
Tried aggregator 1 time.
Reduced MIP has 158 rows, 180 columns, and 684 nonzeros.
Reduced MIP has 180 binaries, 0 generals, 0 SOSs, and 0 indicators.
Presolve time = 0,00 sec. (0,49 ticks)
Represolve time = 0,01 sec. (3,97 ticks)
   4901     0       40,8122   180       69,0000       Cuts: 5   100161   16,87%
   4901     0       41,3720   180       69,0000       Cuts: 7   100204   16,87%
   4901     0       42,0305   180       69,0000       Cuts: 9   100277   16,87%
   4901     0       42,5067   180       69,0000      Cuts: 26   100330   16,87%
   5019    31       52,6229   109       69,0000       57,3595   101715   16,87%
   8802  2029       62,9826   132       69,0000       57,3595   199140   16,87%
  13906  4271       67,4452   130       69,0000       60,4900   324660   12,33%
  18971  3978       67,6622   121       69,0000       64,2198   447028    6,93%

Clique cuts applied:  67
Cover cuts applied:  367
Mixed integer rounding cuts applied:  4
Zero-half cuts applied:  3
Gomory fractional cuts applied:  28

Root node processing (before b&c):
  Real time             =    0,04 sec. (17,73 ticks)
Parallel b&c, 16 threads:
  Real time             =    2,05 sec. (1365,61 ticks)
  Sync time (average)   =    0,67 sec.
  Wait time (average)   =    0,00 sec.
                          ------------
Total (root+branch&cut) =    2,09 sec. (1383,35 ticks)
